; SWAP2 DUP3 SWAP1 => DUP1 SWAP3
(set-option :produce-proofs true)
; 
(set-info :status unknown)
(declare-fun storage_t ((_ BitVec 256) (_ BitVec 256) (_ BitVec 256) Int (_ BitVec 256)) (_ BitVec 256))
(declare-fun storage_s ((_ BitVec 256) (_ BitVec 256) (_ BitVec 256) Int (_ BitVec 256)) (_ BitVec 256))
(declare-fun exc_halt_t (Int) Bool)
(declare-fun exc_halt_s (Int) Bool)
(declare-fun sc_t (Int) (_ BitVec 6))
(declare-fun stack_t ((_ BitVec 256) (_ BitVec 256) (_ BitVec 256) Int (_ BitVec 6)) (_ BitVec 256))
(declare-fun stack_s ((_ BitVec 256) (_ BitVec 256) (_ BitVec 256) Int (_ BitVec 6)) (_ BitVec 256))
(declare-fun sc_s (Int) (_ BitVec 6))
(declare-fun used_gas_t ((_ BitVec 256) (_ BitVec 256) (_ BitVec 256) Int) Int)
(declare-fun used_gas_s ((_ BitVec 256) (_ BitVec 256) (_ BitVec 256) Int) Int)
(assert
 (exists ((x_0 (_ BitVec 256)) (x_1 (_ BitVec 256)) (x_2 (_ BitVec 256)) )(let (($x1187 (forall ((w (_ BitVec 256)) )(let ((?x6396 (storage_t x_0 x_1 x_2 2 w)))
 (let ((?x5834 (storage_s x_0 x_1 x_2 3 w)))
 (= ?x5834 ?x6396))))
 ))
 (let (($x5995 (exc_halt_t 2)))
 (let (($x8103 (exc_halt_s 3)))
 (let (($x1221 (= $x8103 $x5995)))
 (let (($x7609 (forall ((n (_ BitVec 6)) )(let ((?x7557 (stack_t x_0 x_1 x_2 2 n)))
 (let ((?x972 (stack_s x_0 x_1 x_2 3 n)))
 (let (($x4596 (= ?x972 ?x7557)))
 (or $x4596 (bvsle (sc_t 2) n))))))
 ))
 (let ((?x11248 (sc_t 2)))
 (let ((?x3851 (sc_s 3)))
 (let (($x10426 (= ?x3851 ?x11248)))
 (let ((?x9658 (used_gas_t x_0 x_1 x_2 0)))
 (let ((?x1755 (used_gas_s x_0 x_1 x_2 0)))
 (let (($x4890 (= ?x1755 ?x9658)))
 (let (($x6905 (forall ((w (_ BitVec 256)) )(let ((?x2420 (storage_t x_0 x_1 x_2 0 w)))
 (let ((?x10113 (storage_s x_0 x_1 x_2 0 w)))
 (= ?x10113 ?x2420))))
 ))
 (let (($x56 (exc_halt_t 0)))
 (let (($x57 (exc_halt_s 0)))
 (let (($x58 (= $x57 $x56)))
 (let (($x3549 (forall ((n (_ BitVec 6)) )(let ((?x63 (sc_t 0)))
 (let (($x11416 (bvsle ?x63 n)))
 (let ((?x817 (stack_t x_0 x_1 x_2 0 n)))
 (let ((?x11590 (stack_s x_0 x_1 x_2 0 n)))
 (let (($x3453 (= ?x11590 ?x817)))
 (or $x3453 $x11416)))))))
 ))
 (let ((?x63 (sc_t 0)))
 (let ((?x72 (sc_s 0)))
 (let (($x73 (= ?x72 ?x63)))
 (let (($x10167 (= $x5995 (or (exc_halt_t 1) (not (bvsle (_ bv0 6) (bvadd (_ bv60 6) (sc_t 1))))))))
 (let (($x6178 (forall ((w (_ BitVec 256)) )(let ((?x1476 (storage_t x_0 x_1 x_2 1 w)))
 (let ((?x6396 (storage_t x_0 x_1 x_2 2 w)))
 (= ?x6396 ?x1476))))
 ))
 (let (($x10677 (forall ((n (_ BitVec 6)) )(let ((?x5929 (stack_t x_0 x_1 x_2 1 n)))
 (let ((?x7557 (stack_t x_0 x_1 x_2 2 n)))
 (or (= ?x7557 ?x5929) (bvsle (bvadd (_ bv60 6) (sc_t 1)) n)))))
 ))
 (let (($x1118 (= (used_gas_t x_0 x_1 x_2 2) (+ 3 (used_gas_t x_0 x_1 x_2 1)))))
 (let (($x7187 (= (stack_t x_0 x_1 x_2 2 (bvadd (_ bv62 6) ?x11248)) (stack_t x_0 x_1 x_2 1 (bvadd (_ bv62 6) (sc_t 1))))))
 (let (($x5187 (= (stack_t x_0 x_1 x_2 2 (bvadd (_ bv61 6) ?x11248)) (stack_t x_0 x_1 x_2 1 (bvadd (_ bv61 6) (sc_t 1))))))
 (let ((?x9666 (sc_t 1)))
 (let ((?x2563 (bvadd (_ bv63 6) ?x9666)))
 (let ((?x11049 (stack_t x_0 x_1 x_2 1 ?x2563)))
 (let (($x3245 (= (stack_t x_0 x_1 x_2 2 (bvadd (_ bv63 6) ?x11248)) (stack_t x_0 x_1 x_2 1 (bvadd (_ bv60 6) ?x9666)))))
 (let (($x790 (not (= ((_ extract 6 6) (bvadd (_ bv1 7) (concat (_ bv0 1) ?x63))) (_ bv0 1)))))
 (let (($x4852 (exc_halt_t 1)))
 (let (($x9366 (forall ((w (_ BitVec 256)) )(let ((?x2420 (storage_t x_0 x_1 x_2 0 w)))
 (let ((?x1476 (storage_t x_0 x_1 x_2 1 w)))
 (= ?x1476 ?x2420))))
 ))
 (let (($x3794 (forall ((n (_ BitVec 6)) )(let ((?x817 (stack_t x_0 x_1 x_2 0 n)))
 (let ((?x5929 (stack_t x_0 x_1 x_2 1 n)))
 (or (= ?x5929 ?x817) (bvsle (bvadd (_ bv63 6) (sc_t 0)) n)))))
 ))
 (let (($x6587 (= ?x9666 (bvadd (_ bv1 6) ?x63))))
 (let ((?x1830 (bvadd (_ bv63 6) ?x63)))
 (let ((?x9982 (stack_t x_0 x_1 x_2 0 ?x1830)))
 (let (($x5083 (= $x8103 (or (exc_halt_s 2) (not (bvsle (_ bv0 6) (bvadd (_ bv62 6) (sc_s 2))))))))
 (let (($x8995 (forall ((w (_ BitVec 256)) )(let ((?x835 (storage_s x_0 x_1 x_2 2 w)))
 (let ((?x5834 (storage_s x_0 x_1 x_2 3 w)))
 (= ?x5834 ?x835))))
 ))
 (let (($x7781 (forall ((n (_ BitVec 6)) )(let ((?x1666 (stack_s x_0 x_1 x_2 2 n)))
 (let ((?x972 (stack_s x_0 x_1 x_2 3 n)))
 (or (bvsle (bvadd (_ bv62 6) (sc_s 2)) n) (= ?x972 ?x1666)))))
 ))
 (let (($x11916 (= (used_gas_s x_0 x_1 x_2 3) (+ 3 (used_gas_s x_0 x_1 x_2 2)))))
 (let ((?x2272 (sc_s 2)))
 (let ((?x7199 (bvadd (_ bv63 6) ?x2272)))
 (let ((?x207 (stack_s x_0 x_1 x_2 2 ?x7199)))
 (let (($x2689 (= (stack_s x_0 x_1 x_2 3 (bvadd (_ bv63 6) ?x3851)) (stack_s x_0 x_1 x_2 2 (bvadd (_ bv62 6) ?x2272)))))
 (let (($x8780 (exc_halt_s 1)))
 (let (($x11961 (or (not (bvsle (_ bv0 6) (bvadd (_ bv61 6) (sc_s 1)))) (not (= ((_ extract 6 6) (bvadd (_ bv1 7) (concat (_ bv0 1) (sc_s 1)))) (_ bv0 1))) $x8780)))
 (let (($x10052 (exc_halt_s 2)))
 (let (($x3402 (forall ((w (_ BitVec 256)) )(let ((?x10849 (storage_s x_0 x_1 x_2 1 w)))
 (let ((?x835 (storage_s x_0 x_1 x_2 2 w)))
 (= ?x835 ?x10849))))
 ))
 (let (($x3025 (forall ((n (_ BitVec 6)) )(let ((?x1005 (stack_s x_0 x_1 x_2 1 n)))
 (let ((?x1666 (stack_s x_0 x_1 x_2 2 n)))
 (or (= ?x1666 ?x1005) (bvsle (bvadd (_ bv61 6) (sc_s 1)) n)))))
 ))
 (let ((?x324 (used_gas_s x_0 x_1 x_2 2)))
 (let ((?x154 (sc_s 1)))
 (let ((?x5493 (bvadd (_ bv63 6) ?x154)))
 (let ((?x10294 (stack_s x_0 x_1 x_2 1 ?x5493)))
 (let ((?x5843 (bvadd (_ bv62 6) ?x154)))
 (let ((?x2074 (stack_s x_0 x_1 x_2 1 ?x5843)))
 (let ((?x1298 (bvadd (_ bv61 6) ?x154)))
 (let ((?x3852 (stack_s x_0 x_1 x_2 1 ?x1298)))
 (let (($x4404 (forall ((w (_ BitVec 256)) )(let ((?x10113 (storage_s x_0 x_1 x_2 0 w)))
 (let ((?x10849 (storage_s x_0 x_1 x_2 1 w)))
 (= ?x10849 ?x10113))))
 ))
 (let (($x7583 (forall ((n (_ BitVec 6)) )(let ((?x11590 (stack_s x_0 x_1 x_2 0 n)))
 (let ((?x1005 (stack_s x_0 x_1 x_2 1 n)))
 (or (= ?x1005 ?x11590) (bvsle (bvadd (_ bv61 6) (sc_s 0)) n)))))
 ))
 (let (($x2493 (forall ((w (_ BitVec 256)) )(let ((?x10113 (storage_s x_0 x_1 x_2 0 w)))
 (= ?x10113 (_ bv0 256))))
 ))
 (let (($x11727 (= ?x1755 0)))
 (let (($x5393 (not $x57)))
 (let (($x8480 (= (stack_s x_0 x_1 x_2 0 (_ bv2 6)) x_2)))
 (let (($x7961 (= (stack_s x_0 x_1 x_2 0 (_ bv1 6)) x_1)))
 (let (($x3537 (= (stack_s x_0 x_1 x_2 0 (_ bv0 6)) x_0)))
 (let (($x2967 (= ?x72 (_ bv3 6))))
 (and $x2967 $x3537 $x7961 $x8480 $x5393 $x11727 $x2493 (= ?x10294 (stack_s x_0 x_1 x_2 0 (bvadd (_ bv61 6) ?x72))) (= ?x3852 (stack_s x_0 x_1 x_2 0 (bvadd (_ bv63 6) ?x72))) (= ?x2074 (stack_s x_0 x_1 x_2 0 (bvadd (_ bv62 6) ?x72))) (= (used_gas_s x_0 x_1 x_2 1) (+ 3 ?x1755)) (= ?x154 ?x72) $x7583 $x4404 (= $x8780 (or $x57 (not (bvsle (_ bv0 6) (bvadd (_ bv61 6) ?x72))))) (= ?x207 ?x3852) (= (stack_s x_0 x_1 x_2 2 ?x1298) ?x3852) (= (stack_s x_0 x_1 x_2 2 ?x5843) ?x2074) (= (stack_s x_0 x_1 x_2 2 ?x5493) ?x10294) (= ?x324 (+ 3 (used_gas_s x_0 x_1 x_2 1))) (= ?x2272 (bvadd (_ bv1 6) ?x154)) $x3025 $x3402 (= $x10052 $x11961) $x2689 (= (stack_s x_0 x_1 x_2 3 (bvadd (_ bv62 6) ?x3851)) ?x207) $x11916 (= ?x3851 ?x2272) $x7781 $x8995 $x5083 (= ?x11049 ?x9982) (= (stack_t x_0 x_1 x_2 1 ?x1830) ?x9982) (= (used_gas_t x_0 x_1 x_2 1) (+ 3 ?x9658)) $x6587 $x3794 $x9366 (= $x4852 (or $x56 $x790 (not (bvsle (_ bv0 6) ?x1830)))) $x3245 (= (stack_t x_0 x_1 x_2 2 (bvadd (_ bv60 6) ?x11248)) ?x11049) $x5187 $x7187 $x1118 (= ?x11248 ?x9666) $x10677 $x6178 $x10167 $x73 $x3549 $x58 $x6905 $x4890 (not (and $x10426 $x7609 $x1221 $x1187))))))))))))))))))))))))))))))))))))))))))))))))))))))))))))))))))))))
 )
(check-sat)
(get-proof)
